Maximize
  - 3.6521744358876 edge_0_1_0_0 - 2.4410487588948 edge_0_4_0_0
   - 0.044586239959338 edge_0_5_0_0 - 0.301886904564 edge_0_6_0_0
   - 2.6997695005446 edge_0_9_0_0 - 1.68726985875 edge_0_11_0_0
   - 0.6340128829575 edge_0_12_0_0 - 4.0885359004317 edge_0_13_0_0
   - 0.1923271687546503 edge_1_4_0_0 - 0.1972526069583337 edge_1_5_0_0
   - 0.8038029738275091 edge_1_6_0_0 - 0.5629744884206574 edge_1_9_0_0
   - 0.0261247413003644 edge_1_10_0_0 - 0.2459556014321227 edge_1_12_0_0
   - 1.094720453528142 edge_3_1_0_0 - 0.5323188879585975 edge_3_5_0_0
   + 0.0153829680970255 edge_4_1_0_0 + 3.283757975995487 edge_4_3_0_0
   + 1.723647698574866 edge_4_4_0_0 + 1.947740747818176 edge_4_5_0_0
   + 1.788777710179341 edge_4_6_0_0 - 0.3345231652195974 edge_4_7_0_0
   + 1.148657574272999 edge_4_9_0_0 + 1.466755117983248 edge_4_10_0_0
   + 0.00998920028774535 edge_4_11_0_0 + 0.5662791914148331 edge_4_12_0_0
   - 1.277885658876853 edge_4_13_0_0 + 1.894002209813 edge_4_15_0_0
   + 1.239643386466062 edge_5_1_0_0 + 0.9537251937596034 edge_5_3_0_0
   + 2.925931595262752 edge_5_4_0_0 + 2.657993122544929 edge_5_6_0_0
   + 0.6425243358367573 edge_5_7_0_0 + 0.4725826675808781 edge_5_8_0_0
   + 2.504776525756262 edge_5_9_0_0 + 2.433777079128127 edge_5_10_0_0
   + 0.4723093109394787 edge_5_11_0_0 + 1.988511526533156 edge_5_12_0_0
   + 0.1951238644731788 edge_5_13_0_0 + 0.1185331206448782 edge_5_14_0_0
   + 4.653419091442164 edge_5_15_0_0 - 0.5730009640588124 edge_6_1_0_0
   + 0.8632651414141363 edge_6_4_0_0 + 1.661285370920735 edge_6_5_0_0
   + 0.4938688525053573 edge_6_7_0_0 + 0.2959711274741281 edge_6_8_0_0
   + 2.664077730753922 edge_6_9_0_0 + 1.901164982531152 edge_6_10_0_0
   + 1.498264099456945 edge_6_11_0_0 + 1.126533154837853 edge_6_12_0_0
   - 0.0565054064365942 edge_6_13_0_0 - 0.5175562414097431 edge_6_14_0_0
   + 2.796597419437118 edge_6_15_0_0 - 0.5299781691658784 edge_7_1_0_0
   - 0.3042271650618729 edge_7_4_0_0 - 0.1503704250719785 edge_7_5_0_0
   + 0.4554976962304935 edge_7_6_0_0 + 0.4981802623565649 edge_7_8_0_0
   + 1.076922769499466 edge_7_9_0_0 + 0.2538048912543452 edge_7_10_0_0
   - 0.3121962444694942 edge_7_11_0_0 - 0.0999708346890324 edge_7_12_0_0
   - 0.8303528164516388 edge_7_13_0_0 - 0.522281437144912 edge_7_14_0_0
   + 1.052739308403682 edge_7_15_0_0 - 0.3198349693372662 edge_8_6_0_0
   + 0.2533282450242073 edge_8_7_0_0 + 1.179411231396177 edge_8_9_0_0
   + 0.4242604538980733 edge_8_10_0_0 - 0.15815788376496 edge_8_11_0_0
   + 0.0631159795603027 edge_8_12_0_0 - 0.7604374483389659 edge_8_13_0_0
   - 0.5215636107668158 edge_8_14_0_0 - 0.0588378572601941 edge_9_1_0_0
   + 0.727916293062569 edge_9_3_0_0 + 0.6632647853626135 edge_9_4_0_0
   + 0.8975314269333862 edge_9_5_0_0 + 0.1528842787885249 edge_9_6_0_0
   + 3.508591684673693 edge_9_7_0_0 + 4.019787562559651 edge_9_8_0_0
   + 2.146387993884318 edge_9_10_0_0 + 1.71468518849331 edge_9_11_0_0
   + 0.9803974523353854 edge_9_12_0_0 + 0.0108034021942055 edge_9_13_0_0
   + 1.679397698558471 edge_9_15_0_0 - 1.201176344921767 edge_10_1_0_0
   - 1.782102296511861 edge_10_4_0_0 - 1.005236934664065 edge_10_6_0_0
   - 0.7074248898238398 edge_10_7_0_0 - 0.517001702023824 edge_10_8_0_0
   - 0.6316648039971271 edge_10_9_0_0 - 0.0341989346130407 edge_10_11_0_0
   - 0.00562716793104097 edge_10_12_0_0 - 0.7418217395621762 edge_10_13_0_0
   - 1.763270426805066 edge_11_1_0_0 - 0.3243612536759822 edge_11_4_0_0
   - 0.4166616180304963 edge_11_5_0_0 + 0.1045921629572681 edge_11_6_0_0
   + 0.1069380906829002 edge_11_7_0_0 + 0.7132112336653147 edge_11_8_0_0
   - 0.0343464980796112 edge_11_9_0_0 + 0.6224547746167083 edge_11_10_0_0
   + 2.660418255847295 edge_11_12_0_0 + 1.667423053228628 edge_11_13_0_0
   + 0.4231341483075401 edge_11_14_0_0 + 1.719788385702383 edge_11_15_0_0
   + 0.6696647091684318 edge_12_1_0_0 + 0.2469589260979128 edge_12_4_0_0
   + 0.1232543129845483 edge_12_5_0_0 + 0.2276580659691886 edge_12_6_0_0
   + 0.672495517533093 edge_12_7_0_0 + 0.5937049507796904 edge_12_8_0_0
   + 0.9886638709894633 edge_12_9_0_0 + 0.9440921129681773 edge_12_10_0_0
   + 2.196285671475 edge_12_11_0_0 + 2.972518005097702 edge_12_13_0_0
   + 1.474441470754073 edge_12_14_0_0 + 3.905049488001062 edge_12_15_0_0
   - 0.8002556678562629 edge_13_1_0_0 - 0.637886981141395 edge_13_4_0_0
   - 0.338271317819313 edge_13_5_0_0 - 0.4464572468232207 edge_13_6_0_0
   - 0.1132029080551379 edge_13_7_0_0 - 0.5399505742242207 edge_13_9_0_0
   - 0.0800870205910151 edge_13_10_0_0 + 0.59705418744048 edge_13_11_0_0
   + 0.5680644975682084 edge_13_12_0_0 + 0.9279762079723693 edge_13_14_0_0
   + 0.7902875713729555 edge_13_15_0_0 - 0.29979768843628 edge_14_11_0_0
   + 0.0225921559674264 edge_14_13_0_0 + 0.1052191834175134 edge_14_15_0_0
   - 0.6691151285671656 edge_15_13_0_0 - 1.185355612451266 edge_15_14_0_0
Subject To
 one_parent_1: edge_0_1_0_0 + edge_3_1_0_0 + edge_4_1_0_0 + edge_5_1_0_0
   + edge_6_1_0_0 + edge_7_1_0_0 + edge_9_1_0_0 + edge_10_1_0_0
   + edge_11_1_0_0 + edge_12_1_0_0 + edge_13_1_0_0 = 1
 consume_one_flow_unit_1: flow_0_1_0_0 - flow_1_4_0_0 - flow_1_5_0_0
   - flow_1_6_0_0 - flow_1_9_0_0 - flow_1_10_0_0 - flow_1_12_0_0
   + flow_3_1_0_0 + flow_4_1_0_0 + flow_5_1_0_0 + flow_6_1_0_0
   + flow_7_1_0_0 + flow_9_1_0_0 + flow_10_1_0_0 + flow_11_1_0_0
   + flow_12_1_0_0 + flow_13_1_0_0 = 1
 one_parent_2: = 1
 consume_one_flow_unit_2: = 1
 one_parent_3: edge_4_3_0_0 + edge_5_3_0_0 + edge_9_3_0_0 = 1
 consume_one_flow_unit_3: - flow_3_1_0_0 - flow_3_5_0_0 + flow_4_3_0_0
   + flow_5_3_0_0 + flow_9_3_0_0 = 1
 one_parent_4: edge_0_4_0_0 + edge_1_4_0_0 + edge_4_4_0_0 + edge_5_4_0_0
   + edge_6_4_0_0 + edge_7_4_0_0 + edge_9_4_0_0 + edge_10_4_0_0
   + edge_11_4_0_0 + edge_12_4_0_0 + edge_13_4_0_0 = 1
 consume_one_flow_unit_4: flow_0_4_0_0 + flow_1_4_0_0 - flow_4_1_0_0
   - flow_4_3_0_0 - flow_4_5_0_0 - flow_4_6_0_0 - flow_4_7_0_0
   - flow_4_9_0_0 - flow_4_10_0_0 - flow_4_11_0_0 - flow_4_12_0_0
   - flow_4_13_0_0 - flow_4_15_0_0 + flow_5_4_0_0 + flow_6_4_0_0
   + flow_7_4_0_0 + flow_9_4_0_0 + flow_10_4_0_0 + flow_11_4_0_0
   + flow_12_4_0_0 + flow_13_4_0_0 = 1
 one_parent_5: edge_0_5_0_0 + edge_1_5_0_0 + edge_3_5_0_0 + edge_4_5_0_0
   + edge_6_5_0_0 + edge_7_5_0_0 + edge_9_5_0_0 + edge_11_5_0_0
   + edge_12_5_0_0 + edge_13_5_0_0 = 1
 consume_one_flow_unit_5: flow_0_5_0_0 + flow_1_5_0_0 + flow_3_5_0_0
   + flow_4_5_0_0 - flow_5_1_0_0 - flow_5_3_0_0 - flow_5_4_0_0
   - flow_5_6_0_0 - flow_5_7_0_0 - flow_5_8_0_0 - flow_5_9_0_0
   - flow_5_10_0_0 - flow_5_11_0_0 - flow_5_12_0_0 - flow_5_13_0_0
   - flow_5_14_0_0 - flow_5_15_0_0 + flow_6_5_0_0 + flow_7_5_0_0
   + flow_9_5_0_0 + flow_11_5_0_0 + flow_12_5_0_0 + flow_13_5_0_0 = 1
 one_parent_6: edge_0_6_0_0 + edge_1_6_0_0 + edge_4_6_0_0 + edge_5_6_0_0
   + edge_7_6_0_0 + edge_8_6_0_0 + edge_9_6_0_0 + edge_10_6_0_0
   + edge_11_6_0_0 + edge_12_6_0_0 + edge_13_6_0_0 = 1
 consume_one_flow_unit_6: flow_0_6_0_0 + flow_1_6_0_0 + flow_4_6_0_0
   + flow_5_6_0_0 - flow_6_1_0_0 - flow_6_4_0_0 - flow_6_5_0_0
   - flow_6_7_0_0 - flow_6_8_0_0 - flow_6_9_0_0 - flow_6_10_0_0
   - flow_6_11_0_0 - flow_6_12_0_0 - flow_6_13_0_0 - flow_6_14_0_0
   - flow_6_15_0_0 + flow_7_6_0_0 + flow_8_6_0_0 + flow_9_6_0_0
   + flow_10_6_0_0 + flow_11_6_0_0 + flow_12_6_0_0 + flow_13_6_0_0 = 1
 one_parent_7: edge_4_7_0_0 + edge_5_7_0_0 + edge_6_7_0_0 + edge_8_7_0_0
   + edge_9_7_0_0 + edge_10_7_0_0 + edge_11_7_0_0 + edge_12_7_0_0
   + edge_13_7_0_0 = 1
 consume_one_flow_unit_7: flow_4_7_0_0 + flow_5_7_0_0 + flow_6_7_0_0
   - flow_7_1_0_0 - flow_7_4_0_0 - flow_7_5_0_0 - flow_7_6_0_0
   - flow_7_8_0_0 - flow_7_9_0_0 - flow_7_10_0_0 - flow_7_11_0_0
   - flow_7_12_0_0 - flow_7_13_0_0 - flow_7_14_0_0 - flow_7_15_0_0
   + flow_8_7_0_0 + flow_9_7_0_0 + flow_10_7_0_0 + flow_11_7_0_0
   + flow_12_7_0_0 + flow_13_7_0_0 = 1
 one_parent_8: edge_5_8_0_0 + edge_6_8_0_0 + edge_7_8_0_0 + edge_9_8_0_0
   + edge_10_8_0_0 + edge_11_8_0_0 + edge_12_8_0_0 = 1
 consume_one_flow_unit_8: flow_5_8_0_0 + flow_6_8_0_0 + flow_7_8_0_0
   - flow_8_6_0_0 - flow_8_7_0_0 - flow_8_9_0_0 - flow_8_10_0_0
   - flow_8_11_0_0 - flow_8_12_0_0 - flow_8_13_0_0 - flow_8_14_0_0
   + flow_9_8_0_0 + flow_10_8_0_0 + flow_11_8_0_0 + flow_12_8_0_0 = 1
 one_parent_9: edge_0_9_0_0 + edge_1_9_0_0 + edge_4_9_0_0 + edge_5_9_0_0
   + edge_6_9_0_0 + edge_7_9_0_0 + edge_8_9_0_0 + edge_10_9_0_0
   + edge_11_9_0_0 + edge_12_9_0_0 + edge_13_9_0_0 = 1
 consume_one_flow_unit_9: flow_0_9_0_0 + flow_1_9_0_0 + flow_4_9_0_0
   + flow_5_9_0_0 + flow_6_9_0_0 + flow_7_9_0_0 + flow_8_9_0_0
   - flow_9_1_0_0 - flow_9_3_0_0 - flow_9_4_0_0 - flow_9_5_0_0
   - flow_9_6_0_0 - flow_9_7_0_0 - flow_9_8_0_0 - flow_9_10_0_0
   - flow_9_11_0_0 - flow_9_12_0_0 - flow_9_13_0_0 - flow_9_15_0_0
   + flow_10_9_0_0 + flow_11_9_0_0 + flow_12_9_0_0 + flow_13_9_0_0 = 1
 one_parent_10: edge_1_10_0_0 + edge_4_10_0_0 + edge_5_10_0_0
   + edge_6_10_0_0 + edge_7_10_0_0 + edge_8_10_0_0 + edge_9_10_0_0
   + edge_11_10_0_0 + edge_12_10_0_0 + edge_13_10_0_0 = 1
 consume_one_flow_unit_10: flow_1_10_0_0 + flow_4_10_0_0 + flow_5_10_0_0
   + flow_6_10_0_0 + flow_7_10_0_0 + flow_8_10_0_0 + flow_9_10_0_0
   - flow_10_1_0_0 - flow_10_4_0_0 - flow_10_6_0_0 - flow_10_7_0_0
   - flow_10_8_0_0 - flow_10_9_0_0 - flow_10_11_0_0 - flow_10_12_0_0
   - flow_10_13_0_0 + flow_11_10_0_0 + flow_12_10_0_0 + flow_13_10_0_0 = 1
 one_parent_11: edge_0_11_0_0 + edge_4_11_0_0 + edge_5_11_0_0
   + edge_6_11_0_0 + edge_7_11_0_0 + edge_8_11_0_0 + edge_9_11_0_0
   + edge_10_11_0_0 + edge_12_11_0_0 + edge_13_11_0_0 + edge_14_11_0_0 = 1
 consume_one_flow_unit_11: flow_0_11_0_0 + flow_4_11_0_0 + flow_5_11_0_0
   + flow_6_11_0_0 + flow_7_11_0_0 + flow_8_11_0_0 + flow_9_11_0_0
   + flow_10_11_0_0 - flow_11_1_0_0 - flow_11_4_0_0 - flow_11_5_0_0
   - flow_11_6_0_0 - flow_11_7_0_0 - flow_11_8_0_0 - flow_11_9_0_0
   - flow_11_10_0_0 - flow_11_12_0_0 - flow_11_13_0_0 - flow_11_14_0_0
   - flow_11_15_0_0 + flow_12_11_0_0 + flow_13_11_0_0 + flow_14_11_0_0 = 1
 one_parent_12: edge_0_12_0_0 + edge_1_12_0_0 + edge_4_12_0_0
   + edge_5_12_0_0 + edge_6_12_0_0 + edge_7_12_0_0 + edge_8_12_0_0
   + edge_9_12_0_0 + edge_10_12_0_0 + edge_11_12_0_0 + edge_13_12_0_0 = 1
 consume_one_flow_unit_12: flow_0_12_0_0 + flow_1_12_0_0 + flow_4_12_0_0
   + flow_5_12_0_0 + flow_6_12_0_0 + flow_7_12_0_0 + flow_8_12_0_0
   + flow_9_12_0_0 + flow_10_12_0_0 + flow_11_12_0_0 - flow_12_1_0_0
   - flow_12_4_0_0 - flow_12_5_0_0 - flow_12_6_0_0 - flow_12_7_0_0
   - flow_12_8_0_0 - flow_12_9_0_0 - flow_12_10_0_0 - flow_12_11_0_0
   - flow_12_13_0_0 - flow_12_14_0_0 - flow_12_15_0_0 + flow_13_12_0_0 = 1
 one_parent_13: edge_0_13_0_0 + edge_4_13_0_0 + edge_5_13_0_0
   + edge_6_13_0_0 + edge_7_13_0_0 + edge_8_13_0_0 + edge_9_13_0_0
   + edge_10_13_0_0 + edge_11_13_0_0 + edge_12_13_0_0 + edge_14_13_0_0
   + edge_15_13_0_0 = 1
 consume_one_flow_unit_13: flow_0_13_0_0 + flow_4_13_0_0 + flow_5_13_0_0
   + flow_6_13_0_0 + flow_7_13_0_0 + flow_8_13_0_0 + flow_9_13_0_0
   + flow_10_13_0_0 + flow_11_13_0_0 + flow_12_13_0_0 - flow_13_1_0_0
   - flow_13_4_0_0 - flow_13_5_0_0 - flow_13_6_0_0 - flow_13_7_0_0
   - flow_13_9_0_0 - flow_13_10_0_0 - flow_13_11_0_0 - flow_13_12_0_0
   - flow_13_14_0_0 - flow_13_15_0_0 + flow_14_13_0_0 + flow_15_13_0_0 = 1
 one_parent_14: edge_5_14_0_0 + edge_6_14_0_0 + edge_7_14_0_0
   + edge_8_14_0_0 + edge_11_14_0_0 + edge_12_14_0_0 + edge_13_14_0_0
   + edge_15_14_0_0 = 1
 consume_one_flow_unit_14: flow_5_14_0_0 + flow_6_14_0_0 + flow_7_14_0_0
   + flow_8_14_0_0 + flow_11_14_0_0 + flow_12_14_0_0 + flow_13_14_0_0
   - flow_14_11_0_0 - flow_14_13_0_0 - flow_14_15_0_0 + flow_15_14_0_0 = 1
 one_parent_15: edge_4_15_0_0 + edge_5_15_0_0 + edge_6_15_0_0
   + edge_7_15_0_0 + edge_9_15_0_0 + edge_11_15_0_0 + edge_12_15_0_0
   + edge_13_15_0_0 + edge_14_15_0_0 = 1
 consume_one_flow_unit_15: flow_4_15_0_0 + flow_5_15_0_0 + flow_6_15_0_0
   + flow_7_15_0_0 + flow_9_15_0_0 + flow_11_15_0_0 + flow_12_15_0_0
   + flow_13_15_0_0 + flow_14_15_0_0 - flow_15_13_0_0 - flow_15_14_0_0 = 1
 root_flow: flow_0_1_0_0 + flow_0_4_0_0 + flow_0_5_0_0 + flow_0_6_0_0
   + flow_0_9_0_0 + flow_0_11_0_0 + flow_0_12_0_0 + flow_0_13_0_0 = 15
 inactive_no_flow_0_1_0_0: flow_0_1_0_0 - 1000 edge_0_1_0_0 <= 0
 inactive_no_flow_0_4_0_0: flow_0_4_0_0 - 1000 edge_0_4_0_0 <= 0
 inactive_no_flow_0_5_0_0: flow_0_5_0_0 - 1000 edge_0_5_0_0 <= 0
 inactive_no_flow_0_6_0_0: flow_0_6_0_0 - 1000 edge_0_6_0_0 <= 0
 inactive_no_flow_0_9_0_0: flow_0_9_0_0 - 1000 edge_0_9_0_0 <= 0
 inactive_no_flow_0_11_0_0: flow_0_11_0_0 - 1000 edge_0_11_0_0 <= 0
 inactive_no_flow_0_12_0_0: flow_0_12_0_0 - 1000 edge_0_12_0_0 <= 0
 inactive_no_flow_0_13_0_0: flow_0_13_0_0 - 1000 edge_0_13_0_0 <= 0
 inactive_no_flow_1_4_0_0: flow_1_4_0_0 - 1000 edge_1_4_0_0 <= 0
 inactive_no_flow_1_5_0_0: flow_1_5_0_0 - 1000 edge_1_5_0_0 <= 0
 inactive_no_flow_1_6_0_0: flow_1_6_0_0 - 1000 edge_1_6_0_0 <= 0
 inactive_no_flow_1_9_0_0: flow_1_9_0_0 - 1000 edge_1_9_0_0 <= 0
 inactive_no_flow_1_10_0_0: flow_1_10_0_0 - 1000 edge_1_10_0_0 <= 0
 inactive_no_flow_1_12_0_0: flow_1_12_0_0 - 1000 edge_1_12_0_0 <= 0
 inactive_no_flow_3_1_0_0: flow_3_1_0_0 - 1000 edge_3_1_0_0 <= 0
 inactive_no_flow_3_5_0_0: flow_3_5_0_0 - 1000 edge_3_5_0_0 <= 0
 inactive_no_flow_4_1_0_0: flow_4_1_0_0 - 1000 edge_4_1_0_0 <= 0
 inactive_no_flow_4_3_0_0: flow_4_3_0_0 - 1000 edge_4_3_0_0 <= 0
 inactive_no_flow_4_4_0_0: flow_4_4_0_0 - 1000 edge_4_4_0_0 <= 0
 inactive_no_flow_4_5_0_0: flow_4_5_0_0 - 1000 edge_4_5_0_0 <= 0
 inactive_no_flow_4_6_0_0: flow_4_6_0_0 - 1000 edge_4_6_0_0 <= 0
 inactive_no_flow_4_7_0_0: flow_4_7_0_0 - 1000 edge_4_7_0_0 <= 0
 inactive_no_flow_4_9_0_0: flow_4_9_0_0 - 1000 edge_4_9_0_0 <= 0
 inactive_no_flow_4_10_0_0: flow_4_10_0_0 - 1000 edge_4_10_0_0 <= 0
 inactive_no_flow_4_11_0_0: flow_4_11_0_0 - 1000 edge_4_11_0_0 <= 0
 inactive_no_flow_4_12_0_0: flow_4_12_0_0 - 1000 edge_4_12_0_0 <= 0
 inactive_no_flow_4_13_0_0: flow_4_13_0_0 - 1000 edge_4_13_0_0 <= 0
 inactive_no_flow_4_15_0_0: flow_4_15_0_0 - 1000 edge_4_15_0_0 <= 0
 inactive_no_flow_5_1_0_0: flow_5_1_0_0 - 1000 edge_5_1_0_0 <= 0
 inactive_no_flow_5_3_0_0: flow_5_3_0_0 - 1000 edge_5_3_0_0 <= 0
 inactive_no_flow_5_4_0_0: flow_5_4_0_0 - 1000 edge_5_4_0_0 <= 0
 inactive_no_flow_5_6_0_0: flow_5_6_0_0 - 1000 edge_5_6_0_0 <= 0
 inactive_no_flow_5_7_0_0: flow_5_7_0_0 - 1000 edge_5_7_0_0 <= 0
 inactive_no_flow_5_8_0_0: flow_5_8_0_0 - 1000 edge_5_8_0_0 <= 0
 inactive_no_flow_5_9_0_0: flow_5_9_0_0 - 1000 edge_5_9_0_0 <= 0
 inactive_no_flow_5_10_0_0: flow_5_10_0_0 - 1000 edge_5_10_0_0 <= 0
 inactive_no_flow_5_11_0_0: flow_5_11_0_0 - 1000 edge_5_11_0_0 <= 0
 inactive_no_flow_5_12_0_0: flow_5_12_0_0 - 1000 edge_5_12_0_0 <= 0
 inactive_no_flow_5_13_0_0: flow_5_13_0_0 - 1000 edge_5_13_0_0 <= 0
 inactive_no_flow_5_14_0_0: flow_5_14_0_0 - 1000 edge_5_14_0_0 <= 0
 inactive_no_flow_5_15_0_0: flow_5_15_0_0 - 1000 edge_5_15_0_0 <= 0
 inactive_no_flow_6_1_0_0: flow_6_1_0_0 - 1000 edge_6_1_0_0 <= 0
 inactive_no_flow_6_4_0_0: flow_6_4_0_0 - 1000 edge_6_4_0_0 <= 0
 inactive_no_flow_6_5_0_0: flow_6_5_0_0 - 1000 edge_6_5_0_0 <= 0
 inactive_no_flow_6_7_0_0: flow_6_7_0_0 - 1000 edge_6_7_0_0 <= 0
 inactive_no_flow_6_8_0_0: flow_6_8_0_0 - 1000 edge_6_8_0_0 <= 0
 inactive_no_flow_6_9_0_0: flow_6_9_0_0 - 1000 edge_6_9_0_0 <= 0
 inactive_no_flow_6_10_0_0: flow_6_10_0_0 - 1000 edge_6_10_0_0 <= 0
 inactive_no_flow_6_11_0_0: flow_6_11_0_0 - 1000 edge_6_11_0_0 <= 0
 inactive_no_flow_6_12_0_0: flow_6_12_0_0 - 1000 edge_6_12_0_0 <= 0
 inactive_no_flow_6_13_0_0: flow_6_13_0_0 - 1000 edge_6_13_0_0 <= 0
 inactive_no_flow_6_14_0_0: flow_6_14_0_0 - 1000 edge_6_14_0_0 <= 0
 inactive_no_flow_6_15_0_0: flow_6_15_0_0 - 1000 edge_6_15_0_0 <= 0
 inactive_no_flow_7_1_0_0: flow_7_1_0_0 - 1000 edge_7_1_0_0 <= 0
 inactive_no_flow_7_4_0_0: flow_7_4_0_0 - 1000 edge_7_4_0_0 <= 0
 inactive_no_flow_7_5_0_0: flow_7_5_0_0 - 1000 edge_7_5_0_0 <= 0
 inactive_no_flow_7_6_0_0: flow_7_6_0_0 - 1000 edge_7_6_0_0 <= 0
 inactive_no_flow_7_8_0_0: flow_7_8_0_0 - 1000 edge_7_8_0_0 <= 0
 inactive_no_flow_7_9_0_0: flow_7_9_0_0 - 1000 edge_7_9_0_0 <= 0
 inactive_no_flow_7_10_0_0: flow_7_10_0_0 - 1000 edge_7_10_0_0 <= 0
 inactive_no_flow_7_11_0_0: flow_7_11_0_0 - 1000 edge_7_11_0_0 <= 0
 inactive_no_flow_7_12_0_0: flow_7_12_0_0 - 1000 edge_7_12_0_0 <= 0
 inactive_no_flow_7_13_0_0: flow_7_13_0_0 - 1000 edge_7_13_0_0 <= 0
 inactive_no_flow_7_14_0_0: flow_7_14_0_0 - 1000 edge_7_14_0_0 <= 0
 inactive_no_flow_7_15_0_0: flow_7_15_0_0 - 1000 edge_7_15_0_0 <= 0
 inactive_no_flow_8_6_0_0: flow_8_6_0_0 - 1000 edge_8_6_0_0 <= 0
 inactive_no_flow_8_7_0_0: flow_8_7_0_0 - 1000 edge_8_7_0_0 <= 0
 inactive_no_flow_8_9_0_0: flow_8_9_0_0 - 1000 edge_8_9_0_0 <= 0
 inactive_no_flow_8_10_0_0: flow_8_10_0_0 - 1000 edge_8_10_0_0 <= 0
 inactive_no_flow_8_11_0_0: flow_8_11_0_0 - 1000 edge_8_11_0_0 <= 0
 inactive_no_flow_8_12_0_0: flow_8_12_0_0 - 1000 edge_8_12_0_0 <= 0
 inactive_no_flow_8_13_0_0: flow_8_13_0_0 - 1000 edge_8_13_0_0 <= 0
 inactive_no_flow_8_14_0_0: flow_8_14_0_0 - 1000 edge_8_14_0_0 <= 0
 inactive_no_flow_9_1_0_0: flow_9_1_0_0 - 1000 edge_9_1_0_0 <= 0
 inactive_no_flow_9_3_0_0: flow_9_3_0_0 - 1000 edge_9_3_0_0 <= 0
 inactive_no_flow_9_4_0_0: flow_9_4_0_0 - 1000 edge_9_4_0_0 <= 0
 inactive_no_flow_9_5_0_0: flow_9_5_0_0 - 1000 edge_9_5_0_0 <= 0
 inactive_no_flow_9_6_0_0: flow_9_6_0_0 - 1000 edge_9_6_0_0 <= 0
 inactive_no_flow_9_7_0_0: flow_9_7_0_0 - 1000 edge_9_7_0_0 <= 0
 inactive_no_flow_9_8_0_0: flow_9_8_0_0 - 1000 edge_9_8_0_0 <= 0
 inactive_no_flow_9_10_0_0: flow_9_10_0_0 - 1000 edge_9_10_0_0 <= 0
 inactive_no_flow_9_11_0_0: flow_9_11_0_0 - 1000 edge_9_11_0_0 <= 0
 inactive_no_flow_9_12_0_0: flow_9_12_0_0 - 1000 edge_9_12_0_0 <= 0
 inactive_no_flow_9_13_0_0: flow_9_13_0_0 - 1000 edge_9_13_0_0 <= 0
 inactive_no_flow_9_15_0_0: flow_9_15_0_0 - 1000 edge_9_15_0_0 <= 0
 inactive_no_flow_10_1_0_0: flow_10_1_0_0 - 1000 edge_10_1_0_0 <= 0
 inactive_no_flow_10_4_0_0: flow_10_4_0_0 - 1000 edge_10_4_0_0 <= 0
 inactive_no_flow_10_6_0_0: flow_10_6_0_0 - 1000 edge_10_6_0_0 <= 0
 inactive_no_flow_10_7_0_0: flow_10_7_0_0 - 1000 edge_10_7_0_0 <= 0
 inactive_no_flow_10_8_0_0: flow_10_8_0_0 - 1000 edge_10_8_0_0 <= 0
 inactive_no_flow_10_9_0_0: flow_10_9_0_0 - 1000 edge_10_9_0_0 <= 0
 inactive_no_flow_10_11_0_0: flow_10_11_0_0 - 1000 edge_10_11_0_0 <= 0
 inactive_no_flow_10_12_0_0: flow_10_12_0_0 - 1000 edge_10_12_0_0 <= 0
 inactive_no_flow_10_13_0_0: flow_10_13_0_0 - 1000 edge_10_13_0_0 <= 0
 inactive_no_flow_11_1_0_0: flow_11_1_0_0 - 1000 edge_11_1_0_0 <= 0
 inactive_no_flow_11_4_0_0: flow_11_4_0_0 - 1000 edge_11_4_0_0 <= 0
 inactive_no_flow_11_5_0_0: flow_11_5_0_0 - 1000 edge_11_5_0_0 <= 0
 inactive_no_flow_11_6_0_0: flow_11_6_0_0 - 1000 edge_11_6_0_0 <= 0
 inactive_no_flow_11_7_0_0: flow_11_7_0_0 - 1000 edge_11_7_0_0 <= 0
 inactive_no_flow_11_8_0_0: flow_11_8_0_0 - 1000 edge_11_8_0_0 <= 0
 inactive_no_flow_11_9_0_0: flow_11_9_0_0 - 1000 edge_11_9_0_0 <= 0
 inactive_no_flow_11_10_0_0: flow_11_10_0_0 - 1000 edge_11_10_0_0 <= 0
 inactive_no_flow_11_12_0_0: flow_11_12_0_0 - 1000 edge_11_12_0_0 <= 0
 inactive_no_flow_11_13_0_0: flow_11_13_0_0 - 1000 edge_11_13_0_0 <= 0
 inactive_no_flow_11_14_0_0: flow_11_14_0_0 - 1000 edge_11_14_0_0 <= 0
 inactive_no_flow_11_15_0_0: flow_11_15_0_0 - 1000 edge_11_15_0_0 <= 0
 inactive_no_flow_12_1_0_0: flow_12_1_0_0 - 1000 edge_12_1_0_0 <= 0
 inactive_no_flow_12_4_0_0: flow_12_4_0_0 - 1000 edge_12_4_0_0 <= 0
 inactive_no_flow_12_5_0_0: flow_12_5_0_0 - 1000 edge_12_5_0_0 <= 0
 inactive_no_flow_12_6_0_0: flow_12_6_0_0 - 1000 edge_12_6_0_0 <= 0
 inactive_no_flow_12_7_0_0: flow_12_7_0_0 - 1000 edge_12_7_0_0 <= 0
 inactive_no_flow_12_8_0_0: flow_12_8_0_0 - 1000 edge_12_8_0_0 <= 0
 inactive_no_flow_12_9_0_0: flow_12_9_0_0 - 1000 edge_12_9_0_0 <= 0
 inactive_no_flow_12_10_0_0: flow_12_10_0_0 - 1000 edge_12_10_0_0 <= 0
 inactive_no_flow_12_11_0_0: flow_12_11_0_0 - 1000 edge_12_11_0_0 <= 0
 inactive_no_flow_12_13_0_0: flow_12_13_0_0 - 1000 edge_12_13_0_0 <= 0
 inactive_no_flow_12_14_0_0: flow_12_14_0_0 - 1000 edge_12_14_0_0 <= 0
 inactive_no_flow_12_15_0_0: flow_12_15_0_0 - 1000 edge_12_15_0_0 <= 0
 inactive_no_flow_13_1_0_0: flow_13_1_0_0 - 1000 edge_13_1_0_0 <= 0
 inactive_no_flow_13_4_0_0: flow_13_4_0_0 - 1000 edge_13_4_0_0 <= 0
 inactive_no_flow_13_5_0_0: flow_13_5_0_0 - 1000 edge_13_5_0_0 <= 0
 inactive_no_flow_13_6_0_0: flow_13_6_0_0 - 1000 edge_13_6_0_0 <= 0
 inactive_no_flow_13_7_0_0: flow_13_7_0_0 - 1000 edge_13_7_0_0 <= 0
 inactive_no_flow_13_9_0_0: flow_13_9_0_0 - 1000 edge_13_9_0_0 <= 0
 inactive_no_flow_13_10_0_0: flow_13_10_0_0 - 1000 edge_13_10_0_0 <= 0
 inactive_no_flow_13_11_0_0: flow_13_11_0_0 - 1000 edge_13_11_0_0 <= 0
 inactive_no_flow_13_12_0_0: flow_13_12_0_0 - 1000 edge_13_12_0_0 <= 0
 inactive_no_flow_13_14_0_0: flow_13_14_0_0 - 1000 edge_13_14_0_0 <= 0
 inactive_no_flow_13_15_0_0: flow_13_15_0_0 - 1000 edge_13_15_0_0 <= 0
 inactive_no_flow_14_11_0_0: flow_14_11_0_0 - 1000 edge_14_11_0_0 <= 0
 inactive_no_flow_14_13_0_0: flow_14_13_0_0 - 1000 edge_14_13_0_0 <= 0
 inactive_no_flow_14_15_0_0: flow_14_15_0_0 - 1000 edge_14_15_0_0 <= 0
 inactive_no_flow_15_13_0_0: flow_15_13_0_0 - 1000 edge_15_13_0_0 <= 0
 inactive_no_flow_15_14_0_0: flow_15_14_0_0 - 1000 edge_15_14_0_0 <= 0
Bounds
Binaries
 edge_0_1_0_0 edge_0_4_0_0 edge_0_5_0_0 edge_0_6_0_0 edge_0_9_0_0
 edge_0_11_0_0 edge_0_12_0_0 edge_0_13_0_0 edge_1_4_0_0 edge_1_5_0_0
 edge_1_6_0_0 edge_1_9_0_0 edge_1_10_0_0 edge_1_12_0_0 edge_3_1_0_0
 edge_3_5_0_0 edge_4_1_0_0 edge_4_3_0_0 edge_4_4_0_0 edge_4_5_0_0
 edge_4_6_0_0 edge_4_7_0_0 edge_4_9_0_0 edge_4_10_0_0 edge_4_11_0_0
 edge_4_12_0_0 edge_4_13_0_0 edge_4_15_0_0 edge_5_1_0_0 edge_5_3_0_0
 edge_5_4_0_0 edge_5_6_0_0 edge_5_7_0_0 edge_5_8_0_0 edge_5_9_0_0
 edge_5_10_0_0 edge_5_11_0_0 edge_5_12_0_0 edge_5_13_0_0 edge_5_14_0_0
 edge_5_15_0_0 edge_6_1_0_0 edge_6_4_0_0 edge_6_5_0_0 edge_6_7_0_0
 edge_6_8_0_0 edge_6_9_0_0 edge_6_10_0_0 edge_6_11_0_0 edge_6_12_0_0
 edge_6_13_0_0 edge_6_14_0_0 edge_6_15_0_0 edge_7_1_0_0 edge_7_4_0_0
 edge_7_5_0_0 edge_7_6_0_0 edge_7_8_0_0 edge_7_9_0_0 edge_7_10_0_0
 edge_7_11_0_0 edge_7_12_0_0 edge_7_13_0_0 edge_7_14_0_0 edge_7_15_0_0
 edge_8_6_0_0 edge_8_7_0_0 edge_8_9_0_0 edge_8_10_0_0 edge_8_11_0_0
 edge_8_12_0_0 edge_8_13_0_0 edge_8_14_0_0 edge_9_1_0_0 edge_9_3_0_0
 edge_9_4_0_0 edge_9_5_0_0 edge_9_6_0_0 edge_9_7_0_0 edge_9_8_0_0
 edge_9_10_0_0 edge_9_11_0_0 edge_9_12_0_0 edge_9_13_0_0 edge_9_15_0_0
 edge_10_1_0_0 edge_10_4_0_0 edge_10_6_0_0 edge_10_7_0_0 edge_10_8_0_0
 edge_10_9_0_0 edge_10_11_0_0 edge_10_12_0_0 edge_10_13_0_0 edge_11_1_0_0
 edge_11_4_0_0 edge_11_5_0_0 edge_11_6_0_0 edge_11_7_0_0 edge_11_8_0_0
 edge_11_9_0_0 edge_11_10_0_0 edge_11_12_0_0 edge_11_13_0_0 edge_11_14_0_0
 edge_11_15_0_0 edge_12_1_0_0 edge_12_4_0_0 edge_12_5_0_0 edge_12_6_0_0
 edge_12_7_0_0 edge_12_8_0_0 edge_12_9_0_0 edge_12_10_0_0 edge_12_11_0_0
 edge_12_13_0_0 edge_12_14_0_0 edge_12_15_0_0 edge_13_1_0_0 edge_13_4_0_0
 edge_13_5_0_0 edge_13_6_0_0 edge_13_7_0_0 edge_13_9_0_0 edge_13_10_0_0
 edge_13_11_0_0 edge_13_12_0_0 edge_13_14_0_0 edge_13_15_0_0 edge_14_11_0_0
 edge_14_13_0_0 edge_14_15_0_0 edge_15_13_0_0 edge_15_14_0_0
End
